************************************************************************
file with basedata            : mm7_.bas
initial value random generator: 1875255393
************************************************************************
projects                      :  1
jobs (incl. supersource/sink ):  12
horizon                       :  86
RESOURCES
  - renewable                 :  2   R
  - nonrenewable              :  2   N
  - doubly constrained        :  0   D
************************************************************************
PROJECT INFORMATION:
pronr.  #jobs rel.date duedate tardcost  MPM-Time
    1     10      0       20        4       20
************************************************************************
PRECEDENCE RELATIONS:
jobnr.    #modes  #successors   successors
   0        1          3           1   2   3
   1        3          2           5   8
   2        3          3           6   7   8
   3        3          2           4  10
   4        3          1           6
   5        3          2           6   7
   6        3          1           9
   7        3          1          10
   8        3          1          11
   9        3          1          11
  10        3          1          11
  11        1          0        
************************************************************************
REQUESTS/DURATIONS:
jobnr. mode duration  R 1  R 2  R 3  R 4  E(W 1)  E(W 2)
------------------------------------------------------------------------
  0      1     0       0    0    0    0     0       0
  1      1     5       0    5    8    1    25      50
  2      1     7       6    0    6    9    42      105
  3      1     3       0   10    9    7    30      48
  4      1     2       0   10    8    6    20      28
  5      1     6       6    0    9    9    36      108
  6      1     5       0    3    9    6    15      75
  7      1     4       7    0    7    8    28      60
  8      1     2       5    0    7    9    10      32
  9      1     2       6    0    5    5    12      20
 10      1     5       2    0    8    6    10      70
 11      1     0       0    0    0    0     0       0
************************************************************************
RESOURCEAVAILABILITIES:
  R 1  R 2
   12   130
************************************************************************
RESOURCE LIMITS:
jobnr.  l(R 1)  u(R 1)  l(R 2)  u(R 2)
------------------------------------------------------------------------
  0        0       0       0       0
  1        3       5       5      10
  2        3       6       8      15
  3        5      10       9      16
  4        5      10       7      14
  5        3       6      10      18
  6        2       3       8      15
  7        4       7       8      15
  8        3       5       9      16
  9        3       6       6      10
 10        1       2       7      14
 11        0       0       0       0
************************************************************************
SCENARIOS:
------------------------------------------------------------------------
RESOURCE k = 1
s = 1: (0, 30, 23, 44, 22, 33, 14, 29, 14, 9, 8, 0)
s = 2: (0, 19, 38, 32, 23, 52, 14, 35, 10, 10, 10, 0)
s = 3: (0, 31, 41, 28, 21, 55, 21, 31, 16, 11, 11, 0)
s = 4: (0, 35, 40, 33, 14, 23, 17, 27, 9, 14, 17, 0)
s = 5: (0, 24, 23, 26, 22, 39, 18, 24, 14, 18, 13, 0)
s = 6: (0, 23, 45, 29, 20, 33, 13, 29, 13, 10, 14, 0)
s = 7: (0, 19, 40, 39, 27, 36, 24, 41, 11, 8, 10, 0)
s = 8: (0, 22, 58, 22, 21, 43, 22, 37, 11, 9, 9, 0)
s = 9: (0, 21, 66, 19, 20, 39, 14, 27, 12, 7, 10, 0)
s = 10: (0, 27, 23, 46, 23, 24, 11, 24, 11, 18, 9, 0)
s = 11: (0, 21, 31, 18, 14, 34, 12, 55, 12, 14, 10, 0)
s = 12: (0, 23, 39, 31, 22, 41, 15, 30, 11, 18, 10, 0)
s = 13: (0, 18, 57, 20, 18, 23, 14, 24, 12, 10, 10, 0)
s = 14: (0, 26, 56, 20, 17, 37, 13, 35, 9, 9, 10, 0)
s = 15: (0, 24, 48, 28, 20, 26, 21, 31, 6, 15, 12, 0)
s = 16: (0, 28, 29, 17, 17, 51, 20, 19, 8, 12, 6, 0)
s = 17: (0, 38, 48, 42, 25, 47, 13, 24, 16, 16, 8, 0)
s = 18: (0, 24, 26, 26, 19, 35, 24, 36, 10, 15, 8, 0)
s = 19: (0, 39, 42, 36, 16, 21, 16, 39, 14, 16, 8, 0)
s = 20: (0, 33, 30, 30, 15, 44, 11, 29, 10, 12, 9, 0)
s = 21: (0, 21, 45, 29, 13, 54, 25, 19, 10, 11, 14, 0)
s = 22: (0, 26, 53, 32, 21, 34, 17, 19, 8, 11, 9, 0)
s = 23: (0, 37, 37, 31, 18, 21, 15, 31, 15, 14, 9, 0)
s = 24: (0, 21, 37, 24, 27, 26, 16, 50, 10, 16, 9, 0)
s = 25: (0, 33, 30, 31, 19, 38, 12, 29, 12, 16, 7, 0)
s = 26: (0, 32, 29, 30, 27, 35, 11, 28, 15, 14, 11, 0)
s = 27: (0, 29, 60, 34, 11, 22, 16, 33, 9, 14, 10, 0)
s = 28: (0, 25, 60, 40, 20, 33, 13, 19, 9, 13, 12, 0)
s = 29: (0, 29, 46, 31, 19, 20, 25, 18, 10, 17, 8, 0)
s = 30: (0, 20, 37, 24, 12, 33, 17, 20, 11, 18, 9, 0)
s = 31: (0, 31, 32, 32, 24, 58, 11, 30, 13, 8, 7, 0)
s = 32: (0, 27, 68, 25, 24, 40, 17, 25, 9, 16, 7, 0)
s = 33: (0, 14, 39, 26, 15, 24, 12, 38, 8, 9, 10, 0)
s = 34: (0, 31, 36, 35, 18, 36, 13, 24, 8, 9, 7, 0)
s = 35: (0, 40, 49, 43, 16, 37, 22, 25, 6, 19, 9, 0)
s = 36: (0, 33, 29, 40, 24, 51, 33, 25, 10, 17, 11, 0)
s = 37: (0, 37, 38, 26, 22, 27, 15, 25, 9, 10, 10, 0)
s = 38: (0, 45, 51, 17, 11, 27, 13, 25, 9, 14, 15, 0)
s = 39: (0, 29, 38, 33, 13, 35, 14, 43, 10, 9, 19, 0)
s = 40: (0, 28, 40, 24, 25, 40, 15, 28, 13, 11, 7, 0)
s = 41: (0, 20, 37, 34, 26, 26, 11, 28, 14, 8, 12, 0)
s = 42: (0, 31, 56, 19, 22, 28, 16, 31, 15, 15, 8, 0)
s = 43: (0, 19, 33, 42, 17, 39, 20, 22, 11, 12, 10, 0)
s = 44: (0, 25, 50, 25, 25, 32, 24, 17, 16, 10, 7, 0)
s = 45: (0, 32, 32, 22, 24, 56, 14, 31, 9, 15, 9, 0)
s = 46: (0, 20, 48, 36, 18, 42, 18, 30, 8, 10, 9, 0)
s = 47: (0, 31, 36, 36, 16, 35, 22, 31, 7, 10, 7, 0)
s = 48: (0, 24, 55, 36, 26, 33, 17, 23, 7, 12, 12, 0)
s = 49: (0, 18, 54, 22, 27, 39, 14, 19, 13, 9, 12, 0)
s = 50: (0, 31, 26, 45, 17, 39, 17, 27, 16, 15, 9, 0)
s = 51: (0, 36, 29, 29, 24, 38, 12, 18, 12, 13, 14, 0)
s = 52: (0, 22, 23, 34, 33, 45, 16, 30, 11, 13, 9, 0)
s = 53: (0, 28, 45, 25, 25, 35, 17, 22, 9, 13, 19, 0)
s = 54: (0, 18, 37, 33, 18, 35, 10, 34, 8, 9, 14, 0)
s = 55: (0, 23, 55, 21, 28, 44, 14, 40, 7, 20, 9, 0)
s = 56: (0, 17, 48, 40, 11, 42, 14, 49, 7, 9, 13, 0)
s = 57: (0, 32, 50, 19, 16, 30, 26, 44, 12, 8, 12, 0)
s = 58: (0, 35, 48, 22, 16, 37, 10, 29, 7, 10, 11, 0)
s = 59: (0, 41, 36, 31, 26, 34, 11, 51, 12, 10, 9, 0)
s = 60: (0, 22, 38, 42, 20, 45, 13, 30, 8, 13, 12, 0)
s = 61: (0, 26, 29, 25, 18, 19, 9, 24, 9, 12, 9, 0)
s = 62: (0, 19, 50, 25, 23, 39, 10, 23, 15, 14, 12, 0)
s = 63: (0, 19, 31, 29, 19, 34, 20, 35, 8, 15, 8, 0)
s = 64: (0, 26, 49, 20, 32, 27, 10, 27, 13, 17, 12, 0)
s = 65: (0, 27, 35, 34, 24, 27, 15, 31, 11, 9, 14, 0)
s = 66: (0, 30, 41, 20, 27, 38, 12, 29, 11, 17, 17, 0)
s = 67: (0, 30, 47, 16, 14, 31, 14, 35, 8, 15, 7, 0)
s = 68: (0, 25, 61, 20, 15, 32, 13, 35, 9, 12, 7, 0)
s = 69: (0, 24, 46, 29, 22, 24, 19, 26, 8, 10, 9, 0)
s = 70: (0, 19, 72, 36, 21, 50, 11, 31, 14, 10, 9, 0)
s = 71: (0, 30, 28, 37, 21, 49, 15, 17, 8, 11, 10, 0)
s = 72: (0, 25, 49, 19, 22, 34, 9, 31, 7, 11, 9, 0)
s = 73: (0, 18, 60, 25, 20, 51, 12, 25, 7, 13, 11, 0)
s = 74: (0, 29, 40, 36, 21, 63, 17, 32, 15, 10, 15, 0)
s = 75: (0, 34, 44, 35, 17, 49, 20, 20, 9, 10, 12, 0)
s = 76: (0, 18, 39, 22, 20, 22, 21, 30, 9, 13, 10, 0)
s = 77: (0, 16, 50, 28, 19, 34, 14, 31, 9, 9, 7, 0)
s = 78: (0, 28, 35, 39, 12, 26, 16, 28, 7, 10, 8, 0)
s = 79: (0, 40, 28, 32, 25, 24, 13, 29, 11, 14, 13, 0)
s = 80: (0, 24, 36, 28, 13, 56, 16, 34, 14, 7, 15, 0)
s = 81: (0, 25, 51, 42, 22, 27, 15, 16, 8, 9, 7, 0)
s = 82: (0, 43, 28, 41, 13, 25, 12, 20, 7, 16, 9, 0)
s = 83: (0, 28, 40, 19, 21, 42, 22, 32, 10, 14, 10, 0)
s = 84: (0, 29, 49, 35, 17, 50, 18, 36, 11, 9, 11, 0)
s = 85: (0, 15, 51, 24, 21, 26, 12, 26, 7, 11, 8, 0)
s = 86: (0, 24, 36, 30, 25, 25, 16, 29, 7, 12, 9, 0)
s = 87: (0, 25, 47, 23, 16, 53, 15, 34, 13, 10, 12, 0)
s = 88: (0, 21, 69, 19, 19, 26, 16, 31, 12, 10, 9, 0)
s = 89: (0, 32, 27, 30, 16, 37, 21, 24, 8, 9, 7, 0)
s = 90: (0, 25, 22, 31, 18, 35, 10, 34, 9, 11, 8, 0)
s = 91: (0, 24, 42, 45, 22, 31, 19, 29, 12, 9, 7, 0)
s = 92: (0, 21, 39, 34, 12, 25, 10, 31, 13, 14, 9, 0)
s = 93: (0, 28, 51, 25, 22, 35, 16, 23, 8, 10, 12, 0)
s = 94: (0, 28, 53, 27, 16, 20, 18, 22, 11, 10, 11, 0)
s = 95: (0, 44, 47, 25, 24, 37, 11, 26, 14, 15, 9, 0)
s = 96: (0, 18, 36, 29, 25, 48, 16, 34, 9, 13, 8, 0)
s = 97: (0, 26, 33, 28, 17, 33, 13, 29, 9, 10, 9, 0)
s = 98: (0, 22, 34, 35, 20, 39, 13, 36, 9, 8, 8, 0)
s = 99: (0, 27, 54, 33, 13, 45, 15, 23, 11, 10, 7, 0)
s = 100: (0, 26, 52, 22, 22, 40, 18, 38, 8, 15, 10, 0)
s = 101: (0, 26, 36, 17, 23, 24, 22, 20, 18, 13, 7, 0)
s = 102: (0, 23, 38, 25, 18, 32, 10, 29, 9, 18, 12, 0)
s = 103: (0, 14, 26, 30, 14, 51, 24, 26, 8, 14, 7, 0)
s = 104: (0, 22, 37, 32, 26, 34, 19, 27, 10, 12, 7, 0)
s = 105: (0, 22, 31, 22, 14, 66, 17, 23, 11, 9, 7, 0)
s = 106: (0, 32, 33, 18, 33, 40, 9, 38, 10, 16, 10, 0)
s = 107: (0, 26, 44, 27, 23, 26, 14, 25, 15, 11, 14, 0)
s = 108: (0, 36, 39, 19, 14, 29, 15, 23, 14, 10, 11, 0)
s = 109: (0, 25, 31, 51, 17, 29, 12, 27, 13, 9, 6, 0)
s = 110: (0, 15, 60, 27, 27, 37, 25, 25, 14, 15, 12, 0)
s = 111: (0, 23, 43, 49, 15, 33, 19, 19, 10, 9, 12, 0)
s = 112: (0, 17, 44, 45, 19, 22, 24, 40, 9, 11, 12, 0)
s = 113: (0, 27, 54, 22, 35, 41, 21, 31, 13, 11, 7, 0)
s = 114: (0, 22, 46, 24, 24, 30, 12, 20, 6, 13, 14, 0)
s = 115: (0, 34, 46, 24, 12, 32, 22, 39, 11, 19, 11, 0)
s = 116: (0, 28, 63, 28, 18, 48, 11, 33, 9, 14, 17, 0)
s = 117: (0, 21, 31, 17, 26, 20, 17, 22, 11, 10, 15, 0)
s = 118: (0, 22, 60, 29, 18, 44, 23, 24, 9, 13, 9, 0)
s = 119: (0, 35, 60, 37, 14, 28, 12, 16, 8, 14, 11, 0)
s = 120: (0, 25, 31, 19, 26, 35, 10, 31, 12, 15, 9, 0)
s = 121: (0, 27, 28, 20, 20, 31, 15, 46, 10, 18, 9, 0)
s = 122: (0, 32, 31, 29, 15, 26, 15, 27, 8, 13, 10, 0)
s = 123: (0, 22, 46, 43, 15, 22, 25, 34, 10, 21, 10, 0)
s = 124: (0, 30, 43, 22, 17, 48, 14, 24, 8, 15, 13, 0)
s = 125: (0, 30, 37, 28, 18, 25, 18, 35, 8, 10, 8, 0)
s = 126: (0, 21, 67, 42, 19, 26, 16, 37, 8, 14, 10, 0)
s = 127: (0, 22, 45, 33, 21, 36, 10, 17, 11, 7, 10, 0)
s = 128: (0, 21, 61, 24, 19, 36, 9, 29, 10, 11, 10, 0)
s = 129: (0, 17, 46, 46, 15, 33, 11, 33, 10, 12, 8, 0)
s = 130: (0, 31, 33, 32, 21, 50, 26, 22, 11, 12, 10, 0)
s = 131: (0, 27, 28, 29, 31, 54, 19, 22, 8, 10, 11, 0)
s = 132: (0, 19, 24, 24, 12, 31, 11, 20, 11, 12, 11, 0)
s = 133: (0, 23, 44, 36, 20, 22, 12, 32, 7, 17, 15, 0)
s = 134: (0, 16, 48, 23, 20, 63, 21, 22, 6, 13, 16, 0)
s = 135: (0, 34, 35, 27, 17, 28, 12, 33, 14, 16, 8, 0)
s = 136: (0, 35, 36, 53, 19, 42, 13, 34, 9, 9, 10, 0)
s = 137: (0, 36, 44, 36, 20, 36, 22, 21, 11, 8, 14, 0)
s = 138: (0, 34, 44, 34, 33, 37, 17, 27, 13, 11, 15, 0)
s = 139: (0, 27, 45, 20, 22, 39, 14, 22, 6, 17, 6, 0)
s = 140: (0, 31, 32, 24, 19, 38, 18, 30, 8, 14, 8, 0)
s = 141: (0, 21, 28, 21, 22, 47, 13, 30, 14, 9, 14, 0)
s = 142: (0, 18, 40, 20, 30, 29, 16, 24, 9, 11, 10, 0)
s = 143: (0, 22, 30, 18, 19, 33, 16, 17, 12, 17, 8, 0)
s = 144: (0, 19, 46, 21, 24, 38, 12, 32, 10, 12, 15, 0)
s = 145: (0, 19, 46, 30, 33, 50, 18, 16, 6, 9, 12, 0)
s = 146: (0, 21, 52, 35, 18, 25, 17, 26, 9, 7, 8, 0)
s = 147: (0, 39, 25, 23, 33, 32, 17, 21, 8, 13, 9, 0)
s = 148: (0, 20, 60, 33, 12, 29, 11, 26, 6, 19, 12, 0)
s = 149: (0, 19, 62, 24, 19, 29, 12, 28, 16, 9, 13, 0)
s = 150: (0, 21, 62, 33, 22, 26, 19, 22, 10, 15, 7, 0)
s = 151: (0, 19, 62, 42, 21, 46, 10, 25, 12, 13, 14, 0)
s = 152: (0, 22, 56, 22, 29, 24, 17, 19, 12, 12, 8, 0)
s = 153: (0, 24, 41, 44, 14, 44, 14, 45, 8, 13, 13, 0)
s = 154: (0, 31, 57, 34, 23, 32, 11, 22, 8, 12, 11, 0)
s = 155: (0, 31, 52, 35, 20, 26, 12, 41, 14, 11, 12, 0)
s = 156: (0, 27, 29, 23, 15, 49, 11, 17, 8, 9, 11, 0)
s = 157: (0, 15, 51, 32, 18, 26, 12, 26, 7, 13, 8, 0)
s = 158: (0, 18, 41, 22, 26, 44, 21, 17, 12, 16, 10, 0)
s = 159: (0, 23, 56, 16, 18, 36, 24, 20, 14, 10, 11, 0)
s = 160: (0, 27, 24, 41, 17, 45, 15, 33, 10, 10, 8, 0)
s = 161: (0, 35, 40, 23, 22, 30, 12, 23, 8, 10, 15, 0)
s = 162: (0, 17, 35, 29, 12, 50, 13, 39, 9, 8, 7, 0)
s = 163: (0, 15, 36, 32, 14, 27, 16, 21, 12, 8, 10, 0)
s = 164: (0, 14, 38, 29, 26, 27, 21, 33, 12, 9, 6, 0)
s = 165: (0, 38, 47, 24, 15, 33, 14, 46, 6, 11, 6, 0)
s = 166: (0, 29, 28, 32, 38, 26, 11, 38, 10, 8, 9, 0)
s = 167: (0, 20, 44, 30, 20, 50, 22, 52, 12, 12, 11, 0)
s = 168: (0, 26, 46, 32, 19, 55, 12, 19, 8, 12, 7, 0)
s = 169: (0, 18, 30, 32, 13, 35, 10, 21, 11, 19, 10, 0)
s = 170: (0, 29, 27, 46, 20, 30, 20, 25, 10, 13, 9, 0)
s = 171: (0, 26, 61, 54, 28, 30, 15, 24, 18, 8, 7, 0)
s = 172: (0, 23, 40, 21, 21, 26, 14, 23, 11, 18, 6, 0)
s = 173: (0, 26, 42, 32, 21, 47, 11, 27, 9, 14, 12, 0)
s = 174: (0, 29, 53, 24, 34, 33, 21, 22, 10, 13, 12, 0)
s = 175: (0, 43, 37, 41, 19, 58, 23, 27, 11, 17, 7, 0)
s = 176: (0, 22, 54, 30, 27, 33, 18, 38, 11, 8, 15, 0)
s = 177: (0, 16, 32, 39, 13, 49, 17, 35, 6, 9, 12, 0)
s = 178: (0, 42, 39, 45, 18, 21, 19, 32, 11, 16, 8, 0)
s = 179: (0, 16, 48, 31, 15, 33, 17, 24, 10, 11, 12, 0)
s = 180: (0, 34, 36, 37, 17, 36, 10, 29, 11, 8, 9, 0)
s = 181: (0, 24, 40, 19, 19, 34, 11, 31, 7, 16, 11, 0)
s = 182: (0, 35, 42, 31, 19, 46, 24, 32, 12, 15, 7, 0)
s = 183: (0, 20, 63, 43, 12, 45, 20, 41, 10, 15, 14, 0)
s = 184: (0, 17, 26, 20, 13, 24, 11, 26, 13, 16, 8, 0)
s = 185: (0, 16, 38, 37, 13, 44, 21, 18, 9, 12, 7, 0)
s = 186: (0, 27, 33, 33, 22, 32, 10, 25, 13, 9, 13, 0)
s = 187: (0, 18, 29, 23, 38, 28, 19, 25, 8, 16, 14, 0)
s = 188: (0, 28, 27, 37, 28, 26, 11, 35, 10, 11, 8, 0)
s = 189: (0, 19, 40, 42, 13, 34, 13, 23, 12, 12, 13, 0)
s = 190: (0, 19, 59, 33, 21, 33, 13, 31, 10, 11, 13, 0)
s = 191: (0, 27, 52, 39, 19, 27, 15, 20, 9, 17, 7, 0)
s = 192: (0, 30, 25, 21, 17, 39, 14, 22, 19, 8, 7, 0)
s = 193: (0, 24, 52, 49, 32, 47, 14, 38, 14, 12, 7, 0)
s = 194: (0, 25, 51, 20, 16, 44, 11, 36, 7, 9, 12, 0)
s = 195: (0, 21, 45, 23, 20, 22, 18, 27, 10, 14, 7, 0)
s = 196: (0, 26, 33, 30, 25, 50, 13, 23, 10, 15, 9, 0)
s = 197: (0, 21, 33, 20, 17, 26, 13, 25, 9, 10, 7, 0)
s = 198: (0, 26, 38, 22, 15, 27, 26, 27, 16, 11, 7, 0)
s = 199: (0, 27, 37, 43, 26, 43, 16, 17, 8, 12, 12, 0)
s = 200: (0, 19, 44, 29, 27, 29, 24, 23, 10, 19, 10, 0)
------------------------------------------------------------------------
RESOURCE k = 2
s = 1: (0, 59, 58, 70, 30, 97, 67, 63, 44, 15, 53, 0)
s = 2: (0, 37, 95, 51, 32, 156, 67, 74, 30, 16, 65, 0)
s = 3: (0, 61, 101, 44, 29, 164, 101, 66, 49, 17, 73, 0)
s = 4: (0, 70, 100, 52, 19, 67, 84, 58, 26, 22, 113, 0)
s = 5: (0, 47, 56, 42, 30, 116, 90, 51, 45, 30, 91, 0)
s = 6: (0, 46, 111, 46, 28, 98, 63, 63, 41, 17, 93, 0)
s = 7: (0, 37, 100, 62, 38, 106, 118, 88, 34, 13, 65, 0)
s = 8: (0, 44, 145, 36, 29, 127, 110, 78, 35, 14, 59, 0)
s = 9: (0, 41, 165, 30, 28, 117, 70, 58, 37, 12, 68, 0)
s = 10: (0, 53, 58, 73, 31, 71, 52, 51, 34, 29, 60, 0)
s = 11: (0, 41, 77, 29, 19, 102, 57, 117, 38, 22, 65, 0)
s = 12: (0, 45, 97, 49, 30, 121, 72, 63, 34, 30, 64, 0)
s = 13: (0, 36, 143, 32, 24, 69, 68, 51, 36, 17, 64, 0)
s = 14: (0, 51, 140, 32, 23, 110, 61, 73, 27, 14, 67, 0)
s = 15: (0, 48, 120, 45, 28, 76, 103, 65, 19, 25, 81, 0)
s = 16: (0, 55, 71, 27, 24, 152, 100, 41, 25, 20, 39, 0)
s = 17: (0, 76, 118, 67, 35, 139, 61, 52, 50, 26, 51, 0)
s = 18: (0, 47, 65, 42, 26, 103, 120, 77, 30, 25, 53, 0)
s = 19: (0, 78, 105, 57, 22, 62, 79, 83, 45, 27, 50, 0)
s = 20: (0, 66, 75, 48, 21, 132, 55, 61, 32, 20, 62, 0)
s = 21: (0, 41, 111, 47, 18, 162, 121, 40, 32, 17, 92, 0)
s = 22: (0, 52, 132, 51, 30, 102, 84, 39, 26, 18, 61, 0)
s = 23: (0, 74, 93, 49, 25, 63, 75, 65, 46, 22, 63, 0)
s = 24: (0, 41, 91, 38, 38, 76, 76, 106, 30, 26, 63, 0)
s = 25: (0, 65, 75, 49, 26, 113, 59, 61, 36, 27, 48, 0)
s = 26: (0, 64, 72, 48, 38, 105, 51, 60, 46, 23, 73, 0)
s = 27: (0, 57, 150, 54, 15, 64, 77, 71, 27, 23, 68, 0)
s = 28: (0, 49, 150, 64, 28, 98, 64, 41, 29, 22, 80, 0)
s = 29: (0, 58, 115, 49, 27, 58, 122, 37, 30, 28, 54, 0)
s = 30: (0, 40, 91, 38, 16, 98, 84, 43, 35, 29, 57, 0)
s = 31: (0, 62, 79, 51, 33, 172, 54, 64, 42, 14, 47, 0)
s = 32: (0, 54, 170, 40, 34, 119, 82, 53, 29, 27, 48, 0)
s = 33: (0, 27, 98, 42, 20, 70, 59, 81, 24, 14, 70, 0)
s = 34: (0, 62, 90, 55, 25, 108, 63, 52, 24, 15, 45, 0)
s = 35: (0, 80, 122, 68, 22, 110, 110, 52, 18, 31, 63, 0)
s = 36: (0, 66, 73, 64, 33, 153, 161, 54, 32, 27, 76, 0)
s = 37: (0, 74, 93, 41, 30, 79, 75, 54, 28, 17, 64, 0)
s = 38: (0, 89, 127, 27, 15, 81, 61, 54, 26, 24, 101, 0)
s = 39: (0, 58, 94, 53, 17, 105, 69, 91, 31, 14, 130, 0)
s = 40: (0, 56, 100, 38, 35, 118, 73, 60, 39, 19, 44, 0)
s = 41: (0, 40, 91, 53, 36, 77, 54, 59, 44, 14, 79, 0)
s = 42: (0, 61, 140, 30, 30, 82, 79, 65, 46, 25, 50, 0)
s = 43: (0, 37, 81, 67, 24, 116, 97, 47, 34, 19, 65, 0)
s = 44: (0, 49, 123, 40, 35, 94, 118, 35, 51, 17, 46, 0)
s = 45: (0, 64, 80, 34, 34, 167, 68, 66, 29, 25, 59, 0)
s = 46: (0, 39, 119, 57, 24, 126, 88, 64, 23, 16, 57, 0)
s = 47: (0, 62, 89, 58, 22, 103, 110, 66, 20, 16, 44, 0)
s = 48: (0, 47, 137, 58, 36, 97, 85, 50, 22, 19, 79, 0)
s = 49: (0, 36, 133, 34, 37, 116, 68, 40, 41, 15, 84, 0)
s = 50: (0, 61, 64, 72, 24, 115, 81, 58, 49, 24, 57, 0)
s = 51: (0, 72, 72, 46, 33, 114, 59, 39, 37, 22, 97, 0)
s = 52: (0, 44, 57, 53, 46, 134, 76, 63, 33, 21, 63, 0)
s = 53: (0, 56, 111, 40, 34, 105, 85, 47, 26, 21, 131, 0)
s = 54: (0, 35, 92, 52, 25, 103, 48, 73, 24, 15, 93, 0)
s = 55: (0, 46, 136, 33, 40, 131, 68, 86, 21, 32, 62, 0)
s = 56: (0, 34, 119, 64, 15, 125, 69, 104, 22, 14, 88, 0)
s = 57: (0, 63, 125, 31, 23, 90, 129, 94, 39, 13, 84, 0)
s = 58: (0, 70, 118, 36, 22, 110, 47, 62, 21, 17, 73, 0)
s = 59: (0, 82, 90, 49, 36, 102, 52, 108, 38, 17, 60, 0)
s = 60: (0, 44, 95, 67, 28, 133, 61, 64, 25, 21, 83, 0)
s = 61: (0, 52, 71, 40, 25, 57, 43, 51, 29, 19, 59, 0)
s = 62: (0, 37, 125, 39, 32, 115, 47, 48, 48, 23, 82, 0)
s = 63: (0, 38, 77, 46, 26, 101, 97, 75, 24, 24, 54, 0)
s = 64: (0, 52, 122, 32, 44, 81, 46, 58, 40, 27, 83, 0)
s = 65: (0, 53, 86, 54, 33, 80, 74, 65, 34, 14, 92, 0)
s = 66: (0, 60, 101, 32, 38, 114, 57, 61, 33, 28, 114, 0)
s = 67: (0, 59, 118, 26, 19, 93, 70, 75, 24, 24, 48, 0)
s = 68: (0, 50, 152, 32, 21, 94, 62, 75, 27, 20, 43, 0)
s = 69: (0, 48, 113, 47, 31, 71, 95, 55, 25, 16, 63, 0)
s = 70: (0, 38, 180, 57, 29, 148, 55, 65, 43, 17, 59, 0)
s = 71: (0, 60, 69, 59, 29, 145, 72, 37, 26, 18, 65, 0)
s = 72: (0, 49, 122, 30, 31, 101, 44, 65, 22, 18, 63, 0)
s = 73: (0, 35, 149, 39, 28, 151, 60, 53, 20, 21, 76, 0)
s = 74: (0, 58, 100, 57, 30, 189, 83, 69, 48, 16, 102, 0)
s = 75: (0, 67, 109, 56, 23, 147, 99, 43, 29, 16, 81, 0)
s = 76: (0, 36, 96, 36, 27, 66, 105, 64, 27, 22, 67, 0)
s = 77: (0, 32, 125, 45, 26, 102, 70, 65, 28, 15, 46, 0)
s = 78: (0, 55, 87, 62, 17, 77, 77, 60, 21, 16, 56, 0)
s = 79: (0, 80, 68, 51, 35, 70, 62, 62, 34, 24, 89, 0)
s = 80: (0, 48, 88, 44, 17, 167, 77, 72, 43, 12, 100, 0)
s = 81: (0, 50, 128, 66, 30, 79, 72, 34, 24, 15, 44, 0)
s = 82: (0, 85, 70, 65, 18, 75, 60, 42, 21, 26, 59, 0)
s = 83: (0, 56, 98, 30, 29, 126, 110, 69, 31, 24, 66, 0)
s = 84: (0, 57, 123, 55, 23, 150, 86, 77, 35, 15, 71, 0)
s = 85: (0, 30, 126, 38, 30, 77, 57, 56, 21, 18, 56, 0)
s = 86: (0, 48, 90, 48, 35, 75, 79, 62, 21, 20, 62, 0)
s = 87: (0, 49, 118, 37, 23, 157, 73, 73, 40, 17, 79, 0)
s = 88: (0, 42, 171, 29, 26, 77, 77, 65, 37, 16, 60, 0)
s = 89: (0, 64, 67, 48, 23, 110, 101, 52, 24, 15, 45, 0)
s = 90: (0, 50, 55, 49, 26, 103, 48, 73, 29, 17, 53, 0)
s = 91: (0, 48, 105, 71, 31, 91, 92, 63, 36, 14, 45, 0)
s = 92: (0, 42, 96, 55, 16, 73, 48, 65, 41, 22, 61, 0)
s = 93: (0, 55, 127, 40, 30, 104, 79, 50, 24, 17, 79, 0)
s = 94: (0, 55, 131, 43, 22, 60, 86, 46, 33, 17, 72, 0)
s = 95: (0, 87, 117, 40, 33, 111, 54, 55, 43, 25, 57, 0)
s = 96: (0, 35, 88, 46, 34, 142, 79, 72, 28, 21, 53, 0)
s = 97: (0, 52, 82, 44, 23, 99, 61, 61, 29, 16, 57, 0)
s = 98: (0, 43, 85, 56, 28, 115, 62, 76, 28, 14, 56, 0)
s = 99: (0, 54, 134, 52, 18, 133, 74, 49, 35, 16, 43, 0)
s = 100: (0, 51, 130, 35, 31, 120, 90, 80, 24, 24, 68, 0)
s = 101: (0, 51, 88, 26, 32, 72, 106, 41, 55, 22, 48, 0)
s = 102: (0, 46, 95, 40, 25, 94, 47, 61, 27, 29, 81, 0)
s = 103: (0, 27, 65, 47, 20, 153, 119, 56, 23, 23, 47, 0)
s = 104: (0, 44, 92, 51, 36, 102, 92, 57, 32, 19, 46, 0)
s = 105: (0, 44, 78, 34, 19, 196, 85, 49, 33, 15, 48, 0)
s = 106: (0, 64, 81, 29, 45, 119, 45, 82, 30, 26, 66, 0)
s = 107: (0, 52, 108, 43, 32, 78, 66, 54, 47, 19, 97, 0)
s = 108: (0, 71, 96, 31, 20, 86, 73, 49, 45, 16, 74, 0)
s = 109: (0, 49, 76, 81, 23, 85, 56, 58, 40, 15, 41, 0)
s = 110: (0, 30, 150, 43, 38, 109, 125, 52, 43, 25, 82, 0)
s = 111: (0, 45, 106, 79, 21, 97, 94, 40, 30, 14, 79, 0)
s = 112: (0, 33, 109, 72, 27, 65, 118, 85, 28, 18, 83, 0)
s = 113: (0, 53, 134, 35, 49, 122, 104, 66, 40, 19, 43, 0)
s = 114: (0, 44, 114, 38, 34, 90, 56, 43, 20, 21, 97, 0)
s = 115: (0, 67, 114, 38, 16, 94, 108, 82, 34, 31, 74, 0)
s = 116: (0, 55, 156, 45, 25, 143, 52, 71, 27, 23, 119, 0)
s = 117: (0, 42, 77, 26, 37, 60, 81, 46, 33, 16, 100, 0)
s = 118: (0, 44, 150, 46, 25, 131, 112, 51, 29, 21, 61, 0)
s = 119: (0, 69, 150, 59, 19, 83, 59, 33, 25, 23, 74, 0)
s = 120: (0, 50, 76, 30, 37, 105, 49, 67, 36, 24, 57, 0)
s = 121: (0, 54, 68, 31, 28, 93, 72, 97, 31, 29, 58, 0)
s = 122: (0, 64, 77, 47, 21, 76, 71, 57, 24, 21, 69, 0)
s = 123: (0, 43, 114, 68, 21, 64, 123, 71, 31, 34, 67, 0)
s = 124: (0, 59, 107, 35, 23, 144, 67, 51, 24, 24, 85, 0)
s = 125: (0, 60, 92, 44, 25, 73, 86, 73, 23, 17, 54, 0)
s = 126: (0, 41, 167, 66, 26, 78, 76, 79, 25, 23, 69, 0)
s = 127: (0, 43, 111, 52, 29, 108, 46, 35, 33, 12, 68, 0)
s = 128: (0, 41, 151, 39, 27, 108, 45, 61, 30, 17, 67, 0)
s = 129: (0, 34, 113, 73, 20, 98, 52, 70, 31, 19, 55, 0)
s = 130: (0, 62, 83, 51, 29, 148, 128, 46, 35, 20, 67, 0)
s = 131: (0, 53, 70, 47, 43, 160, 93, 47, 23, 17, 74, 0)
s = 132: (0, 37, 59, 39, 16, 93, 51, 42, 36, 20, 74, 0)
s = 133: (0, 45, 108, 58, 28, 66, 56, 68, 21, 28, 103, 0)
s = 134: (0, 32, 118, 37, 27, 187, 101, 46, 19, 21, 107, 0)
s = 135: (0, 68, 88, 42, 23, 84, 60, 70, 42, 27, 54, 0)
s = 136: (0, 70, 90, 84, 27, 126, 64, 73, 28, 15, 70, 0)
s = 137: (0, 71, 110, 57, 28, 106, 108, 45, 34, 13, 98, 0)
s = 138: (0, 68, 109, 54, 46, 111, 83, 57, 39, 18, 100, 0)
s = 139: (0, 54, 112, 31, 31, 115, 66, 46, 18, 29, 42, 0)
s = 140: (0, 61, 80, 37, 26, 114, 88, 64, 24, 23, 53, 0)
s = 141: (0, 41, 69, 33, 31, 139, 64, 64, 43, 15, 97, 0)
s = 142: (0, 35, 99, 32, 41, 85, 80, 50, 28, 18, 66, 0)
s = 143: (0, 44, 75, 29, 27, 97, 77, 35, 36, 28, 52, 0)
s = 144: (0, 38, 115, 34, 33, 113, 59, 69, 32, 19, 100, 0)
s = 145: (0, 37, 114, 48, 46, 148, 89, 34, 17, 15, 80, 0)
s = 146: (0, 42, 129, 55, 25, 73, 82, 56, 27, 11, 50, 0)
s = 147: (0, 78, 62, 36, 46, 96, 84, 45, 26, 22, 61, 0)
s = 148: (0, 39, 149, 53, 17, 87, 53, 56, 19, 32, 80, 0)
s = 149: (0, 38, 154, 38, 26, 87, 56, 59, 49, 15, 88, 0)
s = 150: (0, 41, 153, 53, 31, 76, 94, 46, 31, 25, 49, 0)
s = 151: (0, 37, 154, 67, 29, 138, 46, 53, 37, 22, 98, 0)
s = 152: (0, 43, 138, 35, 41, 70, 83, 40, 37, 20, 54, 0)
s = 153: (0, 47, 103, 69, 20, 132, 70, 96, 24, 21, 85, 0)
s = 154: (0, 62, 142, 54, 32, 95, 55, 48, 25, 20, 72, 0)
s = 155: (0, 61, 130, 56, 28, 78, 57, 87, 44, 18, 80, 0)
s = 156: (0, 53, 73, 37, 21, 147, 53, 35, 23, 15, 71, 0)
s = 157: (0, 30, 127, 50, 25, 76, 59, 55, 23, 22, 52, 0)
s = 158: (0, 36, 101, 35, 36, 132, 104, 37, 38, 26, 66, 0)
s = 159: (0, 45, 139, 26, 24, 108, 119, 42, 44, 17, 72, 0)
s = 160: (0, 54, 59, 65, 24, 133, 74, 69, 30, 16, 56, 0)
s = 161: (0, 69, 99, 36, 30, 90, 56, 49, 25, 17, 101, 0)
s = 162: (0, 34, 88, 47, 16, 148, 63, 84, 26, 13, 44, 0)
s = 163: (0, 29, 89, 51, 20, 81, 77, 45, 36, 14, 69, 0)
s = 164: (0, 28, 95, 47, 36, 79, 102, 69, 39, 15, 38, 0)
s = 165: (0, 75, 116, 38, 20, 99, 68, 98, 19, 18, 41, 0)
s = 166: (0, 58, 69, 51, 53, 77, 54, 81, 32, 13, 58, 0)
s = 167: (0, 40, 110, 47, 27, 148, 110, 110, 36, 20, 77, 0)
s = 168: (0, 52, 115, 52, 26, 165, 56, 39, 25, 19, 49, 0)
s = 169: (0, 36, 75, 50, 18, 103, 47, 44, 34, 31, 64, 0)
s = 170: (0, 58, 67, 73, 28, 88, 99, 54, 31, 22, 61, 0)
s = 171: (0, 52, 151, 86, 38, 90, 74, 51, 55, 14, 48, 0)
s = 172: (0, 45, 99, 34, 29, 77, 70, 49, 33, 29, 42, 0)
s = 173: (0, 52, 104, 51, 29, 139, 54, 58, 27, 22, 84, 0)
s = 174: (0, 58, 132, 39, 48, 97, 102, 47, 29, 21, 82, 0)
s = 175: (0, 85, 92, 66, 27, 173, 113, 58, 34, 28, 49, 0)
s = 176: (0, 44, 134, 48, 38, 98, 86, 82, 35, 14, 101, 0)
s = 177: (0, 31, 78, 63, 18, 147, 81, 75, 19, 14, 80, 0)
s = 178: (0, 84, 97, 71, 25, 62, 94, 68, 33, 26, 52, 0)
s = 179: (0, 31, 119, 49, 21, 98, 85, 51, 31, 17, 82, 0)
s = 180: (0, 67, 89, 60, 23, 108, 48, 61, 34, 13, 59, 0)
s = 181: (0, 48, 98, 31, 26, 102, 52, 66, 21, 26, 72, 0)
s = 182: (0, 69, 104, 49, 26, 136, 117, 68, 37, 24, 49, 0)
s = 183: (0, 40, 157, 68, 17, 133, 100, 86, 30, 25, 92, 0)
s = 184: (0, 34, 65, 32, 18, 72, 55, 55, 41, 26, 51, 0)
s = 185: (0, 32, 94, 59, 18, 132, 102, 37, 28, 19, 49, 0)
s = 186: (0, 53, 82, 52, 31, 95, 49, 54, 42, 15, 87, 0)
s = 187: (0, 35, 73, 37, 53, 83, 91, 53, 25, 26, 95, 0)
s = 188: (0, 55, 67, 59, 40, 77, 54, 75, 31, 18, 51, 0)
s = 189: (0, 38, 100, 67, 17, 102, 64, 48, 38, 20, 86, 0)
s = 190: (0, 37, 146, 53, 30, 99, 62, 66, 31, 18, 88, 0)
s = 191: (0, 53, 129, 63, 27, 81, 71, 42, 29, 29, 44, 0)
s = 192: (0, 60, 61, 33, 23, 117, 66, 46, 60, 13, 47, 0)
s = 193: (0, 48, 130, 78, 45, 141, 66, 82, 44, 19, 44, 0)
s = 194: (0, 50, 127, 31, 23, 131, 53, 77, 22, 15, 79, 0)
s = 195: (0, 42, 113, 37, 28, 65, 90, 58, 30, 23, 47, 0)
s = 196: (0, 52, 81, 48, 35, 148, 63, 49, 29, 25, 58, 0)
s = 197: (0, 42, 82, 32, 23, 77, 61, 54, 27, 16, 43, 0)
s = 198: (0, 51, 94, 35, 21, 80, 130, 58, 50, 18, 46, 0)
s = 199: (0, 53, 91, 68, 36, 129, 77, 35, 24, 19, 82, 0)
s = 200: (0, 38, 109, 47, 38, 86, 119, 49, 32, 32, 65, 0)
************************************************************************
ES/LS-VALUES:
jobnr.   ES(i)    LS(i)
------------------------------------------------------------------------
  0        0        0
  1        0       48
  2        0       56
  3        0       61
  4        5       67
  5        9       57
  6       20       71
  7       20       68
  8       12       82
  9       31       82
 10       27       76
 11       36       86
************************************************************************
BIG-M-VALUES:
M1 = 47, M2 = 262
************************************************************************
